 # Version information for this restart file 
 # current date 2024-10-22 16:42:01.137
 # current working dir /data/home/wuxingxing/datas/al_dir/si_6_cp2k/init_bulk/temp_init_bulk_work/aimd/init_config_0/relax/0_aimd
 # Program compiled at                              Tue Oct 22 15:31:17 CST 2024
 # Program compiled on                                                     login
 # Program compiled for                                                    local
 # Source code revision number                                       git:6712648
 &GLOBAL
   PRINT_LEVEL MEDIUM
   PROJECT_NAME "CP2K_MD"
   RUN_TYPE MD
 &END GLOBAL
 &MOTION
   &MD
     ENSEMBLE NVT
     STEPS 50
     TIMESTEP  9.9999999999999989E-001
     STEP_START_VAL 50
     TIME_START_VAL  5.0000000000000028E+001
     ECONS_START_VAL -2.5158230823043854E+002
     TEMPERATURE  2.9814999999999998E+002
     &THERMOSTAT
       TYPE CSVR
       &CSVR
         TIMECON  1.9999999999999997E+002
         &THERMOSTAT_ENERGY
            -1.9171430914489314E-002
         &END THERMOSTAT_ENERGY
         &RNG_INIT
 Wiener process for Thermostat # 1        1 F T F  -4.8480003456160087E-01        2507513087.0        2482700844.0        1176539424.0        3914095006.0        1278783378.0         685080785.0             12345.0             12345.0             12345.0             12345.0             12345.0             12345.0             12345.0             12345.0             12345.0             12345.0             12345.0             12345.0
         &END RNG_INIT
       &END CSVR
     &END THERMOSTAT
     &AVERAGES T
       &RESTART_AVERAGES
         ITIMES_START 1
         AVECPU  1.4520663245022296E+000
         AVEHUGONIOT  0.0000000000000000E+000
         AVETEMP_BARO  0.0000000000000000E+000
         AVEPOT -2.5162457572559433E+002
         AVEKIN  5.4024821966016295E-002
         AVETEMP  1.8052559930516441E+002
         AVEKIN_QM  0.0000000000000000E+000
         AVETEMP_QM  0.0000000000000000E+000
         AVEVOL  8.7894041929225095E+003
         AVECELL_A  2.1156828168411565E+001
         AVECELL_B  2.0354107172390407E+001
         AVECELL_C  2.0413783880205976E+001
         AVEALPHA  8.9066153557066102E+001
         AVEBETA  9.0362406553439982E+001
         AVEGAMMA  8.9936698618768702E+001
         AVE_ECONS  2.5299333072654284E-001
         AVE_PRESS  1.0407657369905799E+004
         AVE_PXX -1.4530537837830647E+004
       &END RESTART_AVERAGES
     &END AVERAGES
     &PRINT
       &PROGRAM_RUN_INFO SILENT
         &EACH
           MD 1
         &END EACH
       &END PROGRAM_RUN_INFO
     &END PRINT
   &END MD
   &PRINT
     &TRAJECTORY SILENT
       FORMAT XMOL
       &EACH
         MD 1
       &END EACH
     &END TRAJECTORY
     &VELOCITIES SILENT
       &EACH
         MD 0
       &END EACH
     &END VELOCITIES
     &FORCES SILENT
       &EACH
         MD 1
       &END EACH
     &END FORCES
     &RESTART SILENT
       BACKUP_COPIES 0
       &EACH
         MD 1
       &END EACH
     &END RESTART
     &RESTART_HISTORY OFF
     &END RESTART_HISTORY
   &END PRINT
 &END MOTION
 &FORCE_EVAL
   METHOD QS
   STRESS_TENSOR ANALYTICAL
   &DFT
     BASIS_SET_FILE_NAME BASIS_MOLOPT_1
     POTENTIAL_FILE_NAME POTENTIAL_1
     MULTIPLICITY 1
     CHARGE 0
     &SCF
       MAX_SCF 128
       EPS_SCF  1.0000000000000001E-005
       &DIAGONALIZATION T
         ALGORITHM STANDARD
       &END DIAGONALIZATION
       &MIXING T
         METHOD BROYDEN_MIXING
         ALPHA  4.0000000000000002E-001
         NBUFFER 8
       &END MIXING
       &PRINT
         &RESTART OFF
         &END RESTART
       &END PRINT
     &END SCF
     &QS
       EPS_DEFAULT  1.0000000000000000E-010
       EXTRAPOLATION ASPC
       EXTRAPOLATION_ORDER 3
     &END QS
     &MGRID
       CUTOFF  3.0000000000000000E+002
       REL_CUTOFF  4.0000000000000000E+001
     &END MGRID
     &XC
       DENSITY_CUTOFF  1.0000000000000000E-010
       GRADIENT_CUTOFF  1.0000000000000000E-010
       TAU_CUTOFF  1.0000000000000000E-010
       &XC_FUNCTIONAL NO_SHORTCUT
         &PBE T
         &END PBE
       &END XC_FUNCTIONAL
     &END XC
     &POISSON
       POISSON_SOLVER PERIODIC
       PERIODIC XYZ
     &END POISSON
   &END DFT
   &SUBSYS
     &CELL
       A  1.1195711272778317E+001 -0.0000000000000000E+000  0.0000000000000000E+000
       B  1.1899909364680000E-002  1.0770923043212388E+001  0.0000000000000000E+000
       C -6.8327441318528206E-002  1.7613460534319353E-001  1.0800857018774845E+001
       MULTIPLE_UNIT_CELL 1 1 1
     &END CELL
     &COORD
       Si  1.4651643627251802E+000  3.9905673465670941E+000  1.2881402892563794E+000
       Si  4.2599725762464518E+000  9.5814982016079764E+000  9.6395569691440190E+000
       Si  9.7840290317509346E+000  3.9918480155694471E+000  4.0002459758729660E+000
       Si  9.7938686777474491E+000  4.1988751197332173E+000  9.4559909678812630E+000
       Si  9.8476323544660129E+000  9.4113999753727065E+000  4.1564530952350145E+000
       Si  9.8390386258478220E+000  9.5496486646288776E+000  9.5303487500033501E+000
       Si  2.7608879219525111E+000 -1.3742439946807081E-002 -6.5045271540761868E-002
       Si  2.7623213898472745E+000  1.1784856172886971E-001  5.3119612767139257E+000
       Si  2.8054088075638415E+000  5.4182174801963559E+000 -4.0847654363629242E-002
       Si  2.8205072807619938E+000  5.6344673649021937E+000  5.3679990884692907E+000
       Si  8.4293804089199753E+000  9.3197136660937124E-002 -8.8996654161827976E-002
       Si  8.4758528028377516E+000 -5.1047155461054821E-003  5.4848942167744124E+000
       Si  8.4021749417705252E+000  5.3541295318814734E+000 -2.9401665549239557E-002
       Si  4.0335890135252050E+000  4.1739404230918016E+000  9.4006331749901548E+000
       Si  4.1806010077067253E+000  9.4855911050707071E+000  4.0090627095915963E+000
       Si  8.3757604703646447E+000  5.4643003377991421E+000  5.2985263133663913E+000
       Si  4.1762609404029885E+000  6.7955768345332395E+000  1.3473689690258808E+000
       Si  4.1192161227960913E+000  6.9719930682211588E+000  6.7884056201034264E+000
       Si  9.7444314969746255E+000  1.3437054577492147E+000  1.3677434971027838E+000
       Si  9.7708258450814736E+000  1.5496144365693281E+000  6.7251611546288510E+000
       Si  9.7577270478377169E+000  6.7033302178269070E+000  1.3750294539152235E+000
       Si  9.7652747487868243E+000  6.8448513867719019E+000  6.8046379130153607E+000
       Si  2.8581795718115179E+000  2.7740087483458673E+000  2.7840181857058099E+000
       Si  2.5788406158394190E+000  2.8472114772828072E+000  8.0890464620132239E+000
       Si  2.8122425311015347E+000  8.1446829119545843E+000  2.7295843243832931E+000
       Si  2.8054909099076530E+000  8.2722752599171567E+000  8.1941831145391788E+000
       Si  8.3145006806842279E+000  2.6316918655554806E+000  2.7145849843233765E+000
       Si  8.3226075603289242E+000  3.0005029742508320E+000  8.0843177186860409E+000
       Si  4.1876285865789429E+000  1.3172393078171070E+000  1.3464128484439863E+000
       Si  3.9620926370335336E+000  1.4558463675496438E+000  6.7721189083303788E+000
       Si  4.2152774535649176E+000  4.1866551680724129E+000  4.1086311220941045E+000
       Si  5.5536679937288351E+000  8.2227458509825997E+000  5.3938271893994498E+000
       Si  5.6950646619625802E+000  8.0703447699352733E+000  1.3045744008849186E-001
       Si  1.3946469348153425E+000  9.4826963657638981E+000  1.3657857834741642E+000
       Si  1.4472072912588945E+000  9.5036148712968291E+000  6.8007983222559973E+000
       Si  7.0337329454926163E+000  3.9723946162129309E+000  1.3110811523231567E+000
       Si  6.9631676626712560E+000  4.2819927828768289E+000  6.7327311574908562E+000
       Si  7.1047479257589066E+000  9.6208629846295697E+000  1.3692610131788197E+000
       Si  7.0055517011713189E+000  9.5050586536547446E+000  6.8417594186321269E+000
       Si -2.0979723986091801E-002 -3.2314982672147941E-002  2.6445584148959638E+000
       Si  1.1083402724457502E+001  4.9821991395381876E-002  8.0235052124386410E+000
       Si  5.3230550372973737E-002  5.2776312233698350E+000  2.6655688567951410E+000
       Si -2.3919302290086923E-002  5.4780162040377283E+000  7.9982790319194965E+000
       Si  5.5774399856296188E+000  1.4711904717126412E-001  2.7590363044574908E+000
       Si  5.5257503234481158E+000  1.9573241624935839E-001  8.0496529067879639E+000
       Si  5.6377865871270920E+000  5.3852933708770845E+000  2.7046522900491938E+000
       Si  1.3575534397894347E+000  4.2437692480256990E+000  6.5982391757946148E+000
       Si  5.3970550298283948E+000  5.5115674547958307E+000  8.0871803400874516E+000
       Si  1.2306055990455333E+000  1.3636726756821766E+000  9.4201420249324475E+000
       Si  1.2806153430307241E+000  6.8264790725892821E+000  3.9614335045236833E+000
       Si  1.2972126654884295E+000  6.8992010865184934E+000  9.3153524337367006E+000
       Si  6.9630033864813301E+000  1.3448029193955040E+000  4.1986650510760049E+000
       Si  6.8433759843541537E+000  1.5619635576473159E+000  9.3114636517126925E+000
       Si  6.9337002866387776E+000  6.8240580289058839E+000  4.0345936810111622E+000
       Si  6.9269894617549541E+000  6.9237744509379118E+000  9.4715833625220167E+000
       Si  7.9528915949578463E-002  2.6011649828278505E+000  6.6794031682865712E-002
       Si -4.6363915425412178E-003  2.7438056009553922E+000  5.2944201492881513E+000
       Si  5.1399302450929558E-002  7.9499809542143822E+000  6.4229627302111861E-002
       Si  9.1453626419283840E-002  8.0985131471115714E+000  5.5124389713486934E+000
       Si  5.4625537659052137E+000  2.6715808368303673E+000  2.3497374593052785E-002
       Si  5.5105978698226936E+000  2.7628506995920730E+000  5.4714673340405948E+000
       Si  1.3519473315770250E+000  1.3981412053924358E+000  3.8857608941693189E+000
       Si  8.3932398824157470E+000  8.2067276794006609E+000  2.7631078188581935E+000
       Si  8.3800944568838673E+000  8.2302666569248260E+000  8.1962214172407180E+000
     &END COORD
     &VELOCITY
         8.7290121651175827E-005  3.8586116547027691E-005  5.9901511201369397E-005
         1.2587120730142622E-004  1.0429416573824840E-004  9.8318229202050476E-005
        -6.3870303735807961E-006 -5.2672924313420406E-005  9.6456423455691183E-006
        -4.8380257427110161E-005  1.4165494744613460E-004 -5.2008935897604009E-006
         3.2164015931006758E-006 -2.7290862013275025E-005  1.3581206683590865E-004
         3.2543591572012009E-006  2.7686866449427985E-005 -6.2097013686163624E-005
        -4.1142807269330254E-005  8.8984512800674469E-005 -7.9543433710481992E-005
        -1.7752078517209816E-005  1.0924153397080006E-004 -6.3035300981984331E-006
         9.1750768604868618E-006  5.5497318272334666E-007 -5.4951613777331094E-005
        -1.1225225336096958E-005  4.0286045265921782E-005 -4.0613429638974814E-005
         7.1548042000585274E-005 -8.4128990197912710E-005 -2.1362459655339890E-004
        -3.0518393450917485E-005 -2.2369513469912990E-005 -2.1535454176655245E-005
         5.1477137801983678E-006 -5.5068268218163881E-005  1.4944326048520903E-004
        -7.8943461950790859E-005 -9.2950033759814547E-005 -1.2805112751973130E-004
         1.1494608582675442E-004 -2.0651192492609149E-004 -2.7693948502529025E-005
        -1.7348494344048799E-004  1.3121949223978108E-005 -1.3414500631107355E-004
         1.2922902897440604E-004  1.2093344342932801E-004 -4.7118431045736260E-005
        -5.6732404658057426E-008  1.3074019098722315E-004 -4.1995659545287126E-005
        -5.0878689156501359E-005 -4.9234072751665765E-005  8.1589497875010202E-005
         9.1634540084145548E-005 -1.5979645576650627E-005 -5.6302466439809212E-005
        -1.0627690004512164E-004 -1.7198519289711786E-004 -1.3611793418013768E-004
         7.3397490797534831E-005 -8.8208150602816289E-005  2.7005465531547861E-005
        -8.6237639054259632E-005  5.2923062823573561E-005  6.7047289096938607E-006
         2.2722083549825506E-005  6.1347933422321215E-005 -3.2853863988534171E-005
         3.1760817264297321E-005 -2.2968791112843936E-005  4.2954009945201119E-005
        -6.5648825832879354E-005  5.2569394626988047E-005  9.3955504037806925E-005
        -1.7937536925663163E-004  4.8117514771789011E-005  5.8179412280532081E-005
        -7.7940600558237244E-005  1.4095834195060515E-004 -2.6894322000819973E-005
         1.3003448854050120E-005  2.1174965996762830E-005  2.1610354205203567E-005
         3.4075376140606802E-005  5.5275998029228808E-005  8.6208308189127618E-005
         1.3339926264445523E-004 -1.2957524408797622E-004  9.9833913911202488E-006
         1.7437082951628444E-004 -7.9275359501111717E-007 -5.3209968738731572E-005
        -5.6991589463175479E-005 -8.9898025701444593E-005  1.6237098075084407E-004
         1.0086239248747188E-004 -2.3855132723639317E-005  5.8399211544704389E-005
        -2.9587347177426872E-005 -4.3132082023465249E-006  3.5495031364229625E-005
         1.4807575747395301E-004  2.3548926330769346E-005 -9.2442921273546593E-005
         1.2593575507584420E-004  5.9691640082983803E-006 -2.3089553237298138E-005
         1.5065252969196093E-004 -8.6581772832868058E-005  4.5274464562843002E-005
         3.3557467070739111E-005  2.7454424273175974E-005  5.4399173610463495E-005
         6.5733766956166615E-006 -9.2753556061397731E-005 -1.8680409113167501E-005
        -1.5738040299142058E-004 -1.3788055860547939E-004  1.3281407437335034E-004
         1.2481633706824823E-005  1.8880114645603905E-005 -7.0367272285947260E-005
         3.2538089609680034E-005  1.7925490258976609E-005 -2.7721249062412178E-005
         5.2663514553806078E-005  8.5459985704098798E-005  6.0004157532087401E-005
         4.4170570697090008E-005  1.7337217652913900E-004  3.8366567947870081E-005
         7.2920544631371523E-005  8.3551482627973421E-005  9.7878896394791218E-007
        -3.5246277409470620E-005 -3.5226600674931098E-005  4.0041768223935236E-005
        -8.9595261239938941E-005 -7.0525315834750449E-005  7.9128164248407862E-005
         1.2268699385970265E-004 -9.4105675270240991E-005 -7.4940709280025471E-005
        -3.3227955442292359E-005 -1.9718894267126631E-005 -9.3930602935174488E-005
        -4.5190214852036139E-005 -1.1831449699888876E-004 -4.4124418667248215E-005
        -1.6724312201860962E-004  6.5754121689877855E-005  8.7773122555146764E-005
        -1.5266647445957203E-004 -9.4855835571133157E-005 -2.0755227639548778E-004
        -4.9121214676120494E-005  3.9190811330439466E-005 -4.7918495397656651E-005
         5.7557965098230686E-005 -1.5015787469028756E-004  2.2532711439568790E-004
         1.0594862456179182E-005  1.0122206749635081E-005  3.0488369291501767E-005
        -5.3393485392856214E-005 -2.5065693536883821E-005  2.0989483765277567E-006
        -1.7267237522642880E-004 -2.3326988845279500E-005 -9.3193754086127838E-005
         1.3644709910438000E-005 -5.7652360978034224E-005 -4.6123081089914093E-005
        -8.3221495876190433E-005  9.5901483563287274E-005 -6.3588282652917946E-005
         2.2249260982241545E-005 -8.5743887298723342E-005  9.1974539604638964E-005
        -3.5125293984922669E-005  9.9742289127826899E-005 -1.4416218711919975E-004
         3.4687248067002895E-005  6.3225871389536325E-005  1.0382770182698588E-004
        -3.0964618471729759E-005  1.7114833553650419E-004  8.6017723830411733E-005
     &END VELOCITY
     &KIND "Si"
       BASIS_SET "DZVP-MOLOPT-SR-GTH-q4"
       ELEMENT "Si"
       POTENTIAL "GTH-PBE"
       &POTENTIAL
         2 2
           4.4000000000000000E-001 1 -6.2692883300000002E+000
         2
           4.3563383000000000E-001 2  8.9517415000000007E+000 -2.7062708199999999E+000
                                                               3.4937806000000000E+000
           4.9794218000000001E-001 1  2.4312767300000000E+000
         # Potential name: GTH-PBE for element symbol: SI
         # Potential read from the potential filename: POTENTIAL_1
       &END POTENTIAL
     &END KIND
     &TOPOLOGY
       NUMBER_OF_ATOMS 64
       MULTIPLE_UNIT_CELL 1 1 1
     &END TOPOLOGY
   &END SUBSYS
   &PRINT
     &STRESS_TENSOR ON
       &EACH
         MD 1
       &END EACH
     &END STRESS_TENSOR
   &END PRINT
 &END FORCE_EVAL
